1 -1 2 0
1 3 -4 0
1 -3 5 0
1 -5 6 0
1 -5 7 0
1 5 8 0
1 5 9 0
1 -5 3 0
1 8 10 0
1 8 -3 0
1 -8 -2 0
1 -11 2 0
1 7 -12 0
1 13 -14 0
1 13 15 0
1 13 -7 0
1 13 -3 0
1 -16 -8 0
1 -16 17 0
1 -10 17 0
1 -18 -4 0
1 18 15 0
1 18 -17 0
1 9 10 0
1 6 19 0
1 6 -18 0
1 -6 -16 0
1 6 -20 0
1 17 4 0
1 17 -5 0
1 -17 21 0
1 -17 -22 0
1 -4 -23 0
1 -4 24 0
1 4 16 0
1 4 -25 0
1 -4 26 0
1 -27 -6 0
1 27 28 0
1 -19 -6 0
1 19 -9 0
1 29 -19 0
1 -29 28 0
1 29 27 0
1 29 -30 0
1 28 31 0
1 28 -30 0
1 -32 -33 0
1 32 -10 0
1 33 18 0
1 -33 -34 0
1 -33 -21 0
1 33 30 0
1 35 36 0
1 -35 37 0
1 35 38 0
1 -35 39 0
1 40 -41 0
1 40 -42 0
1 43 -44 0
1 43 42 0
1 -45 -46 0
1 -45 47 0
1 -39 -15 0
1 -39 -48 0
1 39 -49 0
1 -36 50 0
1 -36 46 0
1 36 -43 0
1 36 37 0
1 -36 38 0
1 38 -51 0
1 38 -37 0
1 -38 52 0
1 38 53 0
1 -54 -55 0
1 54 -42 0
1 -55 -16 0
1 55 56 0
1 -57 -15 0
1 -57 7 0
1 57 -56 0
1 57 10 0
1 15 -45 0
1 -15 -58 0
1 15 -56 0
1 -59 -43 0
1 42 60 0
1 -41 -61 0
1 41 -57 0
1 -41 54 0
1 -12 -59 0
1 -12 20 0
1 -14 -7 0
1 -14 8 0
1 -14 17 0
1 -14 42 0
1 -25 62 0
1 23 4 0
1 23 -63 0
1 -23 -25 0
1 64 -65 0
1 -64 21 0
1 64 66 0
1 67 68 0
1 67 -69 0
1 -70 -23 0
1 -70 -25 0
1 -71 23 0
1 -71 -72 0
1 21 33 0
1 21 -62 0
1 21 61 0
1 26 4 0
1 -34 -64 0
1 -34 -73 0
1 73 74 0
1 -73 -64 0
1 73 -62 0
1 75 -74 0
1 75 23 0
1 -75 21 0
1 75 76 0
1 -74 -77 0
1 74 25 0
1 74 -76 0
1 62 23 0
1 -78 -62 0
1 -78 -13 0
1 78 26 0
1 30 74 0
1 30 33 0
1 30 -32 0
1 79 -22 0
1 79 80 0
1 -76 -74 0
1 76 81 0
1 -76 82 0
1 -76 -79 0
1 76 80 0
1 76 83 0
1 -76 84 0
1 -80 -85 0
1 80 86 0
1 -81 -87 0
1 -81 -79 0
1 -22 24 0
1 -22 79 0
1 24 88 0
1 24 -79 0
1 -24 89 0
1 24 -22 0
1 24 -30 0
1 90 -82 0
1 -90 -91 0
1 -90 -83 0
1 85 82 0
1 -83 92 0
1 91 93 0
1 -91 28 0
1 -91 -85 0
1 -94 -95 0
1 -94 -96 0
1 -82 97 0
1 82 33 0
1 -82 -93 0
1 82 -96 0
1 -82 76 0
1 98 99 0
1 100 -101 0
1 -102 -103 0
1 -102 -53 0
1 -104 58 0
1 -104 -105 0
1 -104 -44 0
1 -104 100 0
1 -106 -107 0
1 107 -108 0
1 107 109 0
1 -53 110 0
1 -53 -111 0
1 53 102 0
1 51 36 0
1 51 -102 0
1 51 53 0
1 52 101 0
1 -52 -112 0
1 58 36 0
1 58 -104 0
1 -58 -113 0
1 -58 52 0
1 114 46 0
1 -114 -115 0
1 -114 -49 0
1 114 52 0
1 -111 -116 0
1 111 63 0
1 -111 58 0
1 111 44 0
1 111 -117 0
1 111 115 0
1 -111 -100 0
1 -101 116 0
1 110 58 0
1 110 -52 0
1 -110 53 0
1 49 45 0
1 49 -46 0
1 -49 -41 0
1 -49 -111 0
1 46 -113 0
1 -115 118 0
1 115 41 0
1 -115 -119 0
1 115 -48 0
1 -63 23 0
1 -63 113 0
1 -63 -115 0
1 -63 114 0
1 -118 -115 0
1 119 120 0
1 119 61 0
1 -112 116 0
1 112 46 0
1 -112 -121 0
1 113 46 0
1 113 -115 0
1 -61 -118 0
1 61 50 0
1 61 -59 0
1 -61 122 0
1 61 -71 0
1 -123 -50 0
1 -123 -59 0
1 123 -70 0
1 -123 -122 0
1 120 -118 0
1 -120 124 0
1 120 121 0
1 -120 -122 0
1 120 60 0
1 125 -126 0
1 -125 -119 0
1 -125 73 0
1 47 -63 0
1 -47 -68 0
1 47 48 0
1 -48 -123 0
1 -48 -127 0
1 48 68 0
1 -48 -39 0
1 -48 128 0
1 -50 -129 0
1 -50 130 0
1 50 131 0
1 50 132 0
1 50 -125 0
1 -122 132 0
1 -122 133 0
1 68 -134 0
1 68 62 0
1 -68 -135 0
1 68 -71 0
1 -66 -70 0
1 -66 64 0
1 -66 -62 0
1 -66 48 0
1 66 135 0
1 66 78 0
1 -127 136 0
1 84 65 0
1 84 -76 0
1 84 72 0
1 -84 78 0
1 126 -60 0
1 -126 137 0
1 126 -138 0
1 126 84 0
1 -60 139 0
1 -60 -126 0
1 -60 -140 0
1 60 141 0
1 124 139 0
1 -124 -68 0
1 -124 -135 0
1 135 139 0
1 135 68 0
1 -135 56 0
1 -77 24 0
1 77 90 0
1 -77 22 0
1 -77 69 0
1 -138 65 0
1 -138 92 0
1 138 60 0
1 -142 -93 0
1 -142 -65 0
1 142 60 0
1 -142 -69 0
1 140 -143 0
1 140 -136 0
1 -140 -144 0
1 140 22 0
1 65 -97 0
1 -65 -64 0
1 -65 -145 0
1 -69 84 0
1 -136 84 0
1 72 139 0
1 -72 -77 0
1 72 127 0
1 -72 -140 0
1 146 143 0
1 -146 82 0
1 -146 -89 0
1 146 -22 0
1 -146 -94 0
1 146 69 0
1 89 143 0
1 89 -147 0
1 89 137 0
1 89 148 0
1 -97 -88 0
1 -97 147 0
1 97 -69 0
1 -149 -88 0
1 149 65 0
1 149 144 0
1 -144 149 0
1 144 150 0
1 -143 -146 0
1 -143 142 0
1 143 149 0
1 143 -151 0
1 -147 -146 0
1 147 89 0
1 147 -148 0
1 147 -152 0
1 -148 -97 0
1 148 146 0
1 -148 -149 0
1 -95 -143 0
1 95 96 0
1 -95 83 0
1 96 -95 0
1 -96 87 0
1 96 -94 0
1 150 88 0
1 -153 154 0
1 86 97 0
1 -86 -155 0
1 86 -150 0
1 -87 -97 0
1 87 153 0
1 156 -157 0
1 156 -158 0
1 156 150 0
1 -88 159 0
1 88 160 0
1 161 87 0
1 -161 -162 0
1 163 160 0
1 155 -87 0
1 -155 154 0
1 -164 165 0
1 164 154 0
1 154 163 0
1 -162 153 0
1 162 -161 0
1 -166 -165 0
1 -166 82 0
1 166 -167 0
1 166 162 0
1 99 168 0
1 169 -170 0
1 171 168 0
1 -171 -170 0
1 -170 -169 0
1 -170 -172 0
1 173 -174 0
1 173 99 0
1 -168 -175 0
1 168 -176 0
1 -168 177 0
1 178 -175 0
1 109 107 0
1 -109 -179 0
1 -180 -181 0
1 172 -182 0
1 -172 -173 0
1 -183 -184 0
1 -183 -172 0
1 -185 -183 0
1 -185 -181 0
1 181 180 0
1 179 186 0
1 187 -188 0
1 189 110 0
1 189 185 0
1 -189 184 0
1 189 -181 0
1 103 -190 0
1 103 184 0
1 103 -106 0
1 -191 -192 0
1 191 185 0
1 -191 184 0
1 -191 -193 0
1 -192 -110 0
1 -192 -101 0
1 -184 194 0
1 184 -191 0
1 184 195 0
1 184 -172 0
1 196 183 0
1 196 191 0
1 196 -197 0
1 -182 -198 0
1 -182 189 0
1 182 199 0
1 200 188 0
1 200 191 0
1 -201 110 0
1 201 -113 0
1 201 193 0
1 -201 -202 0
1 116 201 0
1 -121 -117 0
1 121 -112 0
1 121 197 0
1 197 -203 0
1 197 204 0
1 -197 -113 0
1 -202 -116 0
1 -202 -131 0
1 202 -205 0
1 202 102 0
1 -202 133 0
1 202 197 0
1 105 -131 0
1 -105 -121 0
1 105 133 0
1 -193 191 0
1 193 206 0
1 203 -192 0
1 203 -194 0
1 203 121 0
1 203 199 0
1 203 197 0
1 131 118 0
1 131 -207 0
1 208 -118 0
1 -208 204 0
1 -208 202 0
1 208 66 0
1 -208 209 0
1 -130 105 0
1 130 -210 0
1 -130 -211 0
1 130 212 0
1 130 133 0
1 -130 213 0
1 -133 105 0
1 133 -130 0
1 -209 214 0
1 209 215 0
1 -209 132 0
1 -117 -130 0
1 -117 214 0
1 -207 216 0
1 -207 217 0
1 -207 208 0
1 204 110 0
1 -204 218 0
1 204 214 0
1 129 209 0
1 -132 -212 0
1 -132 -122 0
1 132 135 0
1 132 -138 0
1 132 -209 0
1 -219 220 0
1 219 142 0
1 219 135 0
1 -219 -209 0
1 215 220 0
1 -215 -128 0
1 -220 221 0
1 213 -222 0
1 213 215 0
1 213 -112 0
1 -211 113 0
1 211 132 0
1 -139 -146 0
1 -139 223 0
1 -139 -224 0
1 -139 135 0
1 225 -220 0
1 225 -97 0
1 225 -223 0
1 225 226 0
1 -225 -72 0
1 227 -225 0
1 -228 229 0
1 -228 137 0
1 128 -230 0
1 128 227 0
1 128 215 0
1 -223 -231 0
1 223 50 0
1 223 -139 0
1 -223 -232 0
1 223 -227 0
1 -233 234 0
1 233 -139 0
1 235 -231 0
1 -235 228 0
1 235 -236 0
1 -235 -128 0
1 236 -141 0
1 -152 -234 0
1 -152 237 0
1 -152 -148 0
1 -230 -228 0
1 230 -238 0
1 -230 -145 0
1 -230 -148 0
1 -239 225 0
1 -239 -240 0
1 239 158 0
1 -239 230 0
1 -239 -241 0
1 -141 239 0
1 -141 -236 0
1 -141 -60 0
1 -141 -241 0
1 141 -160 0
1 -237 225 0
1 237 124 0
1 -237 242 0
1 237 -230 0
1 237 227 0
1 -237 226 0
1 237 241 0
1 237 243 0
1 -226 230 0
1 -226 -241 0
1 -226 152 0
1 151 -238 0
1 -244 147 0
1 244 156 0
1 -160 88 0
1 -160 -158 0
1 -160 145 0
1 160 245 0
1 160 -156 0
1 160 246 0
1 158 247 0
1 158 -155 0
1 158 -248 0
1 -158 -141 0
1 -158 160 0
1 -246 145 0
1 246 -160 0
1 -246 -152 0
1 -238 249 0
1 238 136 0
1 -238 230 0
1 238 160 0
1 -250 -251 0
1 -250 -238 0
1 252 253 0
1 -252 145 0
1 -252 156 0
1 157 87 0
1 -157 245 0
1 157 -86 0
1 -157 252 0
1 -254 245 0
1 254 -255 0
1 245 -253 0
1 245 256 0
1 245 257 0
1 -253 245 0
1 248 -251 0
1 248 -258 0
1 248 167 0
1 247 157 0
1 -247 -256 0
1 257 165 0
1 257 -162 0
1 257 164 0
1 165 -253 0
1 165 259 0
1 -165 -154 0
1 165 -164 0
1 -260 261 0
1 260 -262 0
1 -260 263 0
1 -264 261 0
1 264 245 0
1 -264 -265 0
1 -255 165 0
1 -255 -257 0
1 -259 -254 0
1 -259 -266 0
1 -259 -260 0
1 -259 -267 0
1 -263 -256 0
1 263 -260 0
1 -159 165 0
1 -159 -268 0
1 -159 -260 0
1 -159 263 0
1 -159 167 0
1 159 -267 0
1 -269 -270 0
1 -271 -270 0
1 -272 261 0
1 -272 270 0
1 272 273 0
1 273 -272 0
1 265 -273 0
1 -265 271 0
1 -270 -264 0
1 -270 274 0
1 270 -275 0
1 -270 -272 0
1 261 -274 0
1 261 276 0
1 261 277 0
1 261 -267 0
1 278 99 0
1 279 -169 0
1 -280 281 0
1 282 283 0
1 -284 -285 0
1 -284 -279 0
1 286 -282 0
1 -286 -287 0
1 281 282 0
1 -281 288 0
1 177 -178 0
1 -285 289 0
1 285 290 0
1 287 -289 0
1 -175 284 0
1 175 289 0
1 -175 291 0
1 -175 -168 0
1 175 -292 0
1 -283 293 0
1 -283 -292 0
1 283 -294 0
1 -283 -295 0
1 -283 -176 0
1 -283 177 0
1 -292 296 0
1 289 -297 0
1 -289 175 0
1 290 -175 0
1 176 190 0
1 176 -298 0
1 -176 178 0
1 -190 299 0
1 -190 -170 0
1 190 298 0
1 -295 -300 0
1 295 187 0
1 -296 299 0
1 296 -300 0
1 296 -295 0
1 -296 301 0
1 291 -302 0
1 -291 -188 0
1 -291 295 0
1 -291 -298 0
1 -291 303 0
1 -298 291 0
1 -298 175 0
1 298 176 0
1 299 304 0
1 299 297 0
1 -299 190 0
1 -299 -303 0
1 300 190 0
1 -300 -175 0
1 -300 -294 0
1 300 287 0
1 -188 -200 0
1 188 -302 0
1 -188 291 0
1 188 -182 0
1 -188 -181 0
1 302 -305 0
1 306 -307 0
1 306 186 0
1 -306 -305 0
1 -308 -304 0
1 -308 182 0
1 -308 -309 0
1 308 305 0
1 -310 311 0
1 -310 210 0
1 310 194 0
1 310 -306 0
1 310 -199 0
1 305 310 0
1 -305 188 0
1 305 312 0
1 -313 308 0
1 313 -168 0
1 -313 301 0
1 313 303 0
1 301 308 0
1 -301 314 0
1 301 295 0
1 301 -315 0
1 -194 307 0
1 -194 -131 0
1 -194 -309 0
1 194 -182 0
1 194 199 0
1 199 -305 0
1 -210 316 0
1 210 317 0
1 -210 206 0
1 -206 318 0
1 -206 316 0
1 206 186 0
1 309 210 0
1 -309 -194 0
1 309 217 0
1 307 -319 0
1 307 -320 0
1 307 206 0
1 -186 -321 0
1 -186 306 0
1 322 -308 0
1 -322 -210 0
1 322 320 0
1 -322 199 0
1 -323 -307 0
1 -323 105 0
1 -323 198 0
1 323 195 0
1 -217 -316 0
1 -217 105 0
1 -217 -309 0
1 -217 132 0
1 319 -318 0
1 319 316 0
1 319 195 0
1 216 316 0
1 216 -324 0
1 216 319 0
1 -216 195 0
1 216 -325 0
1 -195 184 0
1 195 -214 0
1 316 -319 0
1 -316 326 0
1 -198 327 0
1 198 319 0
1 -198 -323 0
1 -198 -210 0
1 -198 328 0
1 -198 -329 0
1 198 217 0
1 318 -320 0
1 224 316 0
1 224 139 0
1 224 -211 0
1 224 -195 0
1 224 -330 0
1 -214 211 0
1 -214 209 0
1 331 -332 0
1 331 333 0
1 -331 213 0
1 333 -195 0
1 333 334 0
1 333 -335 0
1 -205 -331 0
1 -205 -221 0
1 332 -336 0
1 332 337 0
1 -332 -221 0
1 330 338 0
1 -330 324 0
1 -330 -319 0
1 -330 -326 0
1 -330 -193 0
1 231 327 0
1 231 334 0
1 231 335 0
1 -221 220 0
1 221 -223 0
1 -221 -339 0
1 -221 -205 0
1 -234 340 0
1 234 -233 0
1 -234 152 0
1 -341 340 0
1 341 -218 0
1 341 230 0
1 -341 342 0
1 -335 234 0
1 335 331 0
1 335 229 0
1 -335 -209 0
1 335 343 0
1 339 344 0
1 339 -117 0
1 -339 -333 0
1 -334 -331 0
1 334 -345 0
1 -218 346 0
1 -218 -221 0
1 -218 -334 0
1 229 228 0
1 -229 -347 0
1 -229 -226 0
1 243 -342 0
1 -243 348 0
1 -242 158 0
1 340 249 0
1 -340 -240 0
1 347 229 0
1 -347 -341 0
1 347 349 0
1 -222 234 0
1 -222 243 0
1 -342 -234 0
1 342 341 0
1 -342 350 0
1 -342 243 0
1 241 -351 0
1 241 -238 0
1 -241 -348 0
1 240 141 0
1 -349 -348 0
1 349 352 0
1 -249 -348 0
1 -351 -353 0
1 348 353 0
1 348 242 0
1 -348 -354 0
1 -348 -241 0
1 232 353 0
1 -232 355 0
1 -232 -242 0
1 -232 -354 0
1 232 -241 0
1 -232 243 0
1 356 355 0
1 -356 233 0
1 -356 357 0
1 356 -349 0
1 356 241 0
1 -358 257 0
1 358 250 0
1 262 -248 0
1 262 -359 0
1 360 -355 0
1 360 -361 0
1 360 -362 0
1 -363 358 0
1 352 -364 0
1 352 360 0
1 -352 -268 0
1 -365 -360 0
1 -365 -249 0
1 -365 354 0
1 -365 359 0
1 -365 366 0
1 -359 353 0
1 359 249 0
1 -359 354 0
1 256 361 0
1 -256 354 0
1 256 -263 0
1 -256 362 0
1 364 -247 0
1 -364 -253 0
1 364 361 0
1 -364 -367 0
1 268 368 0
1 -268 -369 0
1 268 367 0
1 370 371 0
1 -370 352 0
1 370 367 0
1 -372 -364 0
1 372 262 0
1 -372 -267 0
1 -367 373 0
1 -367 277 0
1 367 370 0
1 -361 364 0
1 361 374 0
1 -361 373 0
1 362 -375 0
1 362 -373 0
1 -376 377 0
1 -376 -159 0
1 376 258 0
1 376 -270 0
1 267 -371 0
1 267 -259 0
1 267 258 0
1 267 270 0
1 267 366 0
1 275 277 0
1 -277 377 0
1 277 -378 0
1 -277 270 0
1 277 379 0
1 369 274 0
1 369 -268 0
1 369 380 0
1 369 -277 0
1 -371 -253 0
1 371 -381 0
1 258 -382 0
1 -258 -376 0
1 258 248 0
1 377 -275 0
1 -377 376 0
1 377 267 0
1 -380 -371 0
1 380 -270 0
1 -380 -265 0
1 383 -276 0
1 383 -384 0
1 -385 -371 0
1 385 -369 0
1 -266 -259 0
1 266 274 0
1 -266 -385 0
1 378 386 0
1 378 -387 0
1 378 -263 0
1 -387 -383 0
1 -387 -381 0
1 387 -385 0
1 387 277 0
1 388 -389 0
1 390 391 0
1 -384 -388 0
1 384 392 0
1 -384 -389 0
1 -393 -390 0
1 -276 261 0
1 276 393 0
1 294 283 0
1 -294 394 0
1 -294 -188 0
1 -297 302 0
1 297 394 0
1 -297 294 0
1 -297 300 0
1 -395 -299 0
1 -395 396 0
1 395 -397 0
1 -304 398 0
1 304 -399 0
1 304 300 0
1 -398 297 0
1 394 -297 0
1 394 -400 0
1 394 -395 0
1 401 -304 0
1 396 297 0
1 396 -402 0
1 -400 299 0
1 -400 -399 0
1 -400 397 0
1 -303 -398 0
1 -303 -299 0
1 303 -291 0
1 303 397 0
1 317 -403 0
1 404 293 0
1 -404 -317 0
1 -293 405 0
1 -293 311 0
1 -293 -325 0
1 -293 315 0
1 -397 -400 0
1 -397 -325 0
1 -397 -315 0
1 -406 407 0
1 399 -408 0
1 -399 400 0
1 -311 -409 0
1 -311 403 0
1 311 -305 0
1 315 -186 0
1 -315 -305 0
1 -410 411 0
1 -410 -325 0
1 410 322 0
1 325 -411 0
1 -325 -410 0
1 325 -412 0
1 325 322 0
1 -409 413 0
1 409 -414 0
1 -409 415 0
1 -409 -317 0
1 -403 -409 0
1 -403 -317 0
1 -403 298 0
1 -403 -325 0
1 -403 404 0
1 411 -416 0
1 411 -311 0
1 -417 -413 0
1 417 411 0
1 417 418 0
1 -417 419 0
1 -417 -404 0
1 -420 318 0
1 420 -408 0
1 -420 -421 0
1 420 198 0
1 -320 -421 0
1 320 186 0
1 -320 309 0
1 320 198 0
1 -414 -318 0
1 -414 -409 0
1 414 412 0
1 -414 321 0
1 -414 422 0
1 414 328 0
1 328 -423 0
1 -328 -421 0
1 -328 321 0
1 -328 424 0
1 -421 -338 0
1 -421 327 0
1 -421 425 0
1 -421 326 0
1 -312 426 0
1 -312 -427 0
1 -312 -328 0
1 -412 -428 0
1 314 -413 0
1 314 414 0
1 314 -412 0
1 -314 425 0
1 314 -429 0
1 -314 328 0
1 327 -423 0
1 -326 -423 0
1 326 195 0
1 -326 312 0
1 -338 421 0
1 -338 427 0
1 338 430 0
1 338 -330 0
1 427 -429 0
1 427 430 0
1 -427 -424 0
1 -422 338 0
1 -422 431 0
1 -422 346 0
1 422 -309 0
1 422 432 0
1 422 -433 0
1 -423 -327 0
1 -423 -337 0
1 423 -328 0
1 321 -186 0
1 424 426 0
1 -424 338 0
1 424 425 0
1 424 427 0
1 433 -324 0
1 -433 -337 0
1 433 430 0
1 433 334 0
1 -337 434 0
1 337 435 0
1 -337 -425 0
1 337 430 0
1 -436 435 0
1 -436 -422 0
1 436 430 0
1 346 437 0
1 346 -436 0
1 -430 344 0
1 -430 -346 0
1 -430 337 0
1 430 -427 0
1 430 195 0
1 435 438 0
1 435 345 0
1 -435 -433 0
1 329 198 0
1 -329 -439 0
1 -434 431 0
1 345 -430 0
1 345 334 0
1 345 -335 0
1 -344 435 0
1 344 430 0
1 -344 -345 0
1 344 -334 0
1 344 335 0
1 -438 -440 0
1 -438 441 0
1 -438 342 0
1 -438 -442 0
1 438 343 0
1 443 -249 0
1 -444 -346 0
1 -444 205 0
1 444 436 0
1 336 -445 0
1 -336 344 0
1 -336 -444 0
1 440 -446 0
1 -440 -447 0
1 440 -346 0
1 -440 345 0
1 -440 436 0
1 -437 -443 0
1 437 -448 0
1 -437 449 0
1 -357 -336 0
1 -357 356 0
1 450 -232 0
1 -450 356 0
1 -450 -444 0
1 -451 -444 0
1 -451 -442 0
1 355 -232 0
1 -355 -442 0
1 343 -355 0
1 343 -443 0
1 -343 -452 0
1 343 -451 0
1 343 453 0
1 452 -353 0
1 -452 -443 0
1 -452 -339 0
1 452 354 0
1 -452 438 0
1 -442 -441 0
1 442 451 0
1 441 442 0
1 441 -357 0
1 354 -454 0
1 -354 -452 0
1 354 -455 0
1 353 454 0
1 353 -456 0
1 368 457 0
1 -368 -458 0
1 368 -453 0
1 -453 456 0
1 453 -459 0
1 456 451 0
1 -454 -460 0
1 -454 453 0
1 -350 461 0
1 -350 368 0
1 -350 -462 0
1 375 463 0
1 -375 365 0
1 375 359 0
1 366 464 0
1 -366 -465 0
1 -466 -457 0
1 -466 -463 0
1 466 467 0
1 466 379 0
1 -463 -373 0
1 463 366 0
1 464 -466 0
1 -464 -468 0
1 457 -469 0
1 -457 -470 0
1 -457 368 0
1 -457 -471 0
1 -459 375 0
1 459 472 0
1 -459 453 0
1 -473 -463 0
1 -473 -474 0
1 473 372 0
1 473 -475 0
1 373 475 0
1 382 377 0
1 382 470 0
1 382 -468 0
1 -382 -476 0
1 468 -467 0
1 468 -474 0
1 -468 471 0
1 -474 -466 0
1 -474 -381 0
1 474 468 0
1 -475 -386 0
1 475 474 0
1 -475 468 0
1 467 477 0
1 -467 473 0
1 467 -466 0
1 476 473 0
1 478 -388 0
1 478 -475 0
1 -381 -387 0
1 -381 -478 0
1 -381 474 0
1 -386 474 0
1 -479 -478 0
1 -480 382 0
1 408 481 0
1 -408 402 0
1 408 -482 0
1 408 399 0
1 419 406 0
1 419 417 0
1 -483 481 0
1 -483 484 0
1 483 414 0
1 483 402 0
1 485 -402 0
1 485 486 0
1 -485 417 0
1 -484 -398 0
1 482 -483 0
1 402 408 0
1 402 -487 0
1 -413 407 0
1 -413 -411 0
1 418 -486 0
1 488 416 0
1 488 -415 0
1 488 -412 0
1 488 429 0
1 488 489 0
1 -429 -484 0
1 405 490 0
1 405 -491 0
1 -405 429 0
1 -486 488 0
1 -486 413 0
1 486 405 0
1 407 -483 0
1 -492 488 0
1 -492 -407 0
1 492 483 0
1 426 493 0
1 -425 -416 0
1 494 495 0
1 494 428 0
1 494 -436 0
1 491 415 0
1 491 486 0
1 -415 488 0
1 -415 491 0
1 493 403 0
1 -493 -494 0
1 416 426 0
1 -416 496 0
1 -416 497 0
1 -489 -429 0
1 -439 498 0
1 439 -423 0
1 -439 -434 0
1 -439 -495 0
1 -439 -493 0
1 -439 497 0
1 -431 -423 0
1 431 495 0
1 431 -329 0
1 -431 493 0
1 -499 500 0
1 -501 -428 0
1 501 499 0
1 -495 -447 0
1 495 -439 0
1 -495 -494 0
1 502 -495 0
1 502 -494 0
1 428 -491 0
1 -428 503 0
1 -498 428 0
1 498 504 0
1 -505 -495 0
1 -505 504 0
1 -447 -450 0
1 -447 -437 0
1 -447 -430 0
1 -449 506 0
1 432 501 0
1 432 458 0
1 432 -499 0
1 -507 423 0
1 507 446 0
1 507 -447 0
1 507 501 0
1 508 -509 0
1 508 -501 0
1 508 -321 0
1 508 -510 0
1 -508 505 0
1 511 505 0
1 511 -512 0
1 513 445 0
1 513 -506 0
1 -513 -336 0
1 513 514 0
1 513 444 0
1 -445 -509 0
1 445 506 0
1 -445 515 0
1 445 437 0
1 445 516 0
1 445 440 0
1 458 517 0
1 -458 515 0
1 -458 432 0
1 458 516 0
1 -458 -518 0
1 458 519 0
1 -458 442 0
1 -517 506 0
1 517 -432 0
1 517 -520 0
1 516 -515 0
1 516 521 0
1 516 522 0
1 515 517 0
1 -515 445 0
1 515 -446 0
1 515 458 0
1 515 -513 0
1 -520 445 0
1 520 -449 0
1 -520 -523 0
1 -506 445 0
1 -506 -524 0
1 506 525 0
1 -526 -515 0
1 -526 -527 0
1 526 442 0
1 -526 516 0
1 -526 519 0
1 -465 448 0
1 -465 452 0
1 465 -518 0
1 465 343 0
1 460 -350 0
1 460 516 0
1 -519 -462 0
1 -528 529 0
1 -518 -530 0
1 518 -448 0
1 -518 526 0
1 448 529 0
1 -461 -531 0
1 -462 -456 0
1 -462 -457 0
1 462 461 0
1 462 528 0
1 -470 -532 0
1 470 533 0
1 -471 528 0
1 471 534 0
1 -471 -468 0
1 -471 535 0
1 531 471 0
1 531 -462 0
1 -531 460 0
1 -531 343 0
1 534 461 0
1 -534 -441 0
1 -534 535 0
1 469 -536 0
1 469 -537 0
1 469 -478 0
1 469 467 0
1 -469 -459 0
1 469 -476 0
1 -472 -536 0
1 472 469 0
1 -472 -459 0
1 477 -386 0
1 477 -538 0
1 -477 467 0
1 -477 -539 0
1 540 -531 0
1 540 541 0
1 -540 539 0
1 -537 -477 0
1 -537 471 0
1 539 477 0
1 539 -472 0
1 536 469 0
1 -533 536 0
1 533 470 0
1 497 542 0
1 490 -543 0
1 -500 -487 0
1 -500 -542 0
1 -544 487 0
1 544 545 0
1 -544 -489 0
1 546 504 0
1 -542 -490 0
1 542 504 0
1 542 -500 0
1 543 -481 0
1 -543 544 0
1 -504 -416 0
1 504 489 0
1 -504 428 0
1 -547 -545 0
1 -503 546 0
1 503 548 0
1 -549 496 0
1 -549 -542 0
1 549 550 0
1 -549 -551 0
1 545 552 0
1 -545 544 0
1 545 514 0
1 -545 553 0
1 554 407 0
1 -554 555 0
1 -554 553 0
1 -548 503 0
1 548 556 0
1 -548 553 0
1 514 -496 0
1 514 428 0
1 -514 550 0
1 514 502 0
1 509 -550 0
1 509 -551 0
1 510 557 0
1 -510 558 0
1 510 -559 0
1 510 508 0
1 -557 -511 0
1 -557 560 0
1 -557 561 0
1 -558 -549 0
1 558 -562 0
1 551 563 0
1 -496 563 0
1 -496 503 0
1 496 -562 0
1 -550 -564 0
1 550 -503 0
1 -527 506 0
1 527 -560 0
1 -512 -560 0
1 512 551 0
1 -512 553 0
1 524 -558 0
1 -524 -564 0
1 -524 -565 0
1 524 -560 0
1 -525 560 0
1 -525 -559 0
1 565 -566 0
1 -565 495 0
1 -561 -567 0
1 -559 563 0
1 -559 -428 0
1 -560 -563 0
1 560 -568 0
1 -521 569 0
1 -521 515 0
1 521 -565 0
1 -521 -570 0
1 -521 571 0
1 -571 -515 0
1 -571 448 0
1 571 -565 0
1 571 462 0
1 571 -561 0
1 -532 -572 0
1 -532 -569 0
1 532 -573 0
1 532 448 0
1 532 570 0
1 532 561 0
1 -567 -573 0
1 567 -448 0
1 570 -432 0
1 570 -567 0
1 -569 -538 0
1 -569 571 0
1 -569 -525 0
1 -574 575 0
1 574 -568 0
1 -572 511 0
1 572 521 0
1 -530 569 0
1 530 534 0
1 530 -529 0
1 530 -518 0
1 530 535 0
1 -529 -569 0
1 529 576 0
1 -529 -448 0
1 -529 -570 0
1 -529 568 0
1 529 535 0
1 538 576 0
1 538 534 0
1 -538 -535 0
1 577 573 0
1 -577 522 0
1 -522 532 0
1 -576 -522 0
1 576 -577 0
1 -523 -573 0
1 523 532 0
1 573 -532 0
1 573 -577 0
1 -573 567 0
1 -555 578 0
1 -553 512 0
1 -579 578 0
1 580 579 0
1 -578 581 0
1 578 -564 0
1 578 -579 0
1 -582 553 0
1 583 487 0
1 563 558 0
1 563 -584 0
1 562 -578 0
1 -581 -584 0
1 585 -586 0
1 -585 567 0
1 -585 587 0
1 588 585 0
1 584 545 0
1 584 562 0
1 -584 579 0
1 -589 -562 0
1 556 589 0
1 556 562 0
1 -566 -588 0
1 -566 -586 0
1 -566 587 0
1 -566 -560 0
1 -568 588 0
1 568 574 0
1 -568 590 0
1 -591 592 0
1 591 584 0
1 -592 566 0
1 592 590 0
1 586 -566 0
1 -586 587 0
1 587 591 0
